Version identifier: 22.1.1.0 | 2022-11-28 | 9160aff4d
CPXPARAM_ClockType                               1
CPXPARAM_Read_DataCheck                          1
CPXPARAM_Threads                                 1
CPXPARAM_TimeLimit                               7200
CPXPARAM_MIP_Tolerances_AbsMIPGap                0
CPXPARAM_MIP_Tolerances_MIPGap                   0
CPXPARAM_MIP_Tolerances_Integrality              0
Tried aggregator 2 times.
MIP Presolve eliminated 40 rows and 14 columns.
MIP Presolve modified 8 coefficients.
Aggregator did 4642 substitutions.
Reduced MIP has 141367 rows, 60290 columns, and 462784 nonzeros.
Reduced MIP has 60290 binaries, 0 generals, 0 SOSs, and 0 indicators.
Presolve time = 0.80 sec. (410.43 ticks)
Found incumbent of value 2384.000000 after 2.38 sec. (998.57 ticks)
Probing time = 0.07 sec. (19.25 ticks)
Tried aggregator 1 time.
Detecting symmetries...
Reduced MIP has 141367 rows, 60290 columns, and 462784 nonzeros.
Reduced MIP has 60290 binaries, 0 generals, 0 SOSs, and 0 indicators.
Presolve time = 0.76 sec. (335.52 ticks)
Probing time = 0.07 sec. (18.75 ticks)
Clique table members: 81605.
MIP emphasis: balance optimality and feasibility.
MIP search method: dynamic search.
Parallel mode: none, using 1 thread.
Root relaxation solution time = 2466.53 sec. (507480.56 ticks)

        Nodes                                         Cuts/
   Node  Left     Objective  IInf  Best Integer    Best Bound    ItCnt     Gap

*     0+    0                         2384.0000    27834.0000              --- 
      0     0    27828.0000 24986     2384.0000    27828.0000   284198     --- 

Clique cuts applied:  64
Zero-half cuts applied:  5524
Lift and project cuts applied:  4
Gomory fractional cuts applied:  1

Root node processing (before b&c):
  Real time             = 7200.19 sec. (2448493.50 ticks)
Sequential b&c:
  Real time             =    0.00 sec. (0.00 ticks)
                          ------------
Total (root+branch&cut) = 7200.19 sec. (2448493.50 ticks)
Solution is feasible.

---------------------
@@@ MIP_time_limit_feasible
>>> Benchmark mc2024_track1_160.cnf k 5 OPT 2384 TimeCost 7342.0082149505615 TimeSolve 7229.2339651584625 TimeRead 0.02423858642578125 TimeTrans 112.75001120567322
